unknown
(model
; cardinality of BoundSet is 2
(declare-sort BoundSet 0)
; rep: @uc_BoundSet_0
; rep: @uc_BoundSet_1
(declare-sort UnboundSet 0)
(define-fun IsElderly ((BOUND_VARIABLE_453 BoundSet)) Bool true)
(define-fun IsThrough ((BOUND_VARIABLE_453 BoundSet)) Bool true)
(define-fun IsOld ((BOUND_VARIABLE_453 BoundSet)) Bool false)
(define-fun IsLookingAt ((BOUND_VARIABLE_453 BoundSet)) Bool false)
)
unsat
(error "Cannot get the current model unless immediately preceded by SAT/INVALID or UNKNOWN response.")
